
Gurobi 10.0.0 (win64) logging started Tue Jun  4 15:47:30 2024

Set parameter LogFile to value "C:\Users\ealvarezq\Documents\GitHub\Comillas\Models\JointResearch\05. Models\06.Benchmarking\D.Representative_days_based_on_RES_and_Demand\9n_mod1_ByStages_nc10/openStarNet_9n_mod1_ByStages_nc10.log"
Set parameter Method to value 2
Set parameter MIPFocus to value 1
Set parameter Presolve to value 2
Set parameter RINS to value 100
Set parameter MIPGap to value 0.01
Set parameter Threads to value 9
Set parameter TimeLimit to value 259200
Set parameter IterationLimit to value 760000000
Gurobi Optimizer version 10.0.0 build v10.0.0rc2 (win64)

CPU model: Intel(R) Core(TM) i7-8700 CPU @ 3.20GHz, instruction set [SSE2|AVX|AVX2]
Thread count: 6 physical cores, 12 logical processors, using up to 9 threads

Optimize a model with 2623 rows, 1429 columns and 7958 nonzeros
Model fingerprint: 0x4b7547fb
Variable types: 1393 continuous, 36 integer (36 binary)
Coefficient statistics:
  Matrix range     [3e-04, 4e+03]
  Objective range  [1e+00, 1e+00]
  Bounds range     [7e-04, 2e+00]
  RHS range        [3e-04, 1e+00]
Presolve removed 893 rows and 473 columns
Presolve time: 0.01s
Presolved: 1730 rows, 956 columns, 5920 nonzeros
Variable types: 920 continuous, 36 integer (36 binary)
Found heuristic solution: objective 4361.5613504
Root relaxation presolved: 1730 rows, 956 columns, 5920 nonzeros

Root barrier log...

Ordering time: 0.03s

Barrier statistics:
 AA' NZ     : 4.497e+04
 Factor NZ  : 2.356e+05 (roughly 3 MB of memory)
 Factor Ops : 5.204e+07 (less than 1 second per iteration)
 Threads    : 9

                  Objective                Residual
Iter       Primal          Dual         Primal    Dual     Compl     Time
   0   4.89067932e+05 -1.39078829e+07  7.16e+00 6.56e+02  1.55e+04     0s
   1   6.07596013e+04 -5.63347510e+06  7.61e-01 3.27e-11  2.21e+03     0s
   2   1.24693362e+04 -3.92797987e+06  2.45e-02 2.48e-10  1.15e+03     0s
   3   4.62702903e+03 -1.06294747e+05  7.11e-15 2.27e-11  3.19e+01     0s
   4   1.20924254e+03 -1.27407744e+04  2.53e-14 2.84e-12  4.02e+00     0s
   5   7.37341177e+02 -2.89347160e+03  1.42e-14 4.68e-12  1.05e+00     0s
   6   3.08505393e+02 -3.23146642e+02  2.31e-14 3.13e-12  1.82e-01     0s
   7   1.52285339e+02 -2.67939499e+01  6.17e-14 3.34e-12  5.16e-02     0s
   8   8.14206865e+01  4.35022684e+01  1.05e-13 2.31e-12  1.09e-02     0s
   9   7.02912542e+01  6.38096089e+01  1.99e-13 4.57e-12  1.87e-03     0s
  10   6.76406886e+01  6.69587527e+01  5.03e-13 1.88e-12  1.96e-04     0s
  11   6.75131500e+01  6.71903276e+01  2.88e-10 2.94e-12  9.30e-05     0s
  12   6.72997804e+01  6.72652165e+01  6.50e-10 1.86e-12  9.96e-06     0s
  13   6.72807481e+01  6.72804645e+01  1.20e-11 2.51e-12  8.17e-08     0s
  14   6.72806447e+01  6.72806444e+01  1.15e-10 4.65e-12  8.18e-11     0s

Barrier solved model in 14 iterations and 0.10 seconds (0.06 work units)
Optimal objective 6.72806447e+01


Root relaxation: objective 6.728064e+01, 121 iterations, 0.08 seconds (0.04 work units)

    Nodes    |    Current Node    |     Objective Bounds      |     Work
 Expl Unexpl |  Obj  Depth IntInf | Incumbent    BestBd   Gap | It/Node Time

     0     0   67.28064    0    7 4361.56135   67.28064  98.5%     -    0s
H    0     0                    4310.1245334   67.28064  98.4%     -    0s
H    0     0                     102.8895992   67.28064  34.6%     -    0s
     0     0   72.46295    0    1  102.88960   72.46295  29.6%     -    0s
H    0     0                      72.5366232   72.46295  0.10%     -    0s

Cutting planes:
  Gomory: 1
  MIR: 15
  RLT: 1
  Relax-and-lift: 2

Explored 1 nodes (154 simplex iterations) in 0.15 seconds (0.07 work units)
Thread count was 9 (of 12 available processors)

Solution count 4: 72.5366 102.89 4310.12 4361.56 

Optimal solution found (tolerance 1.00e-02)
Best objective 7.253662320702e+01, best bound 7.246295092123e+01, gap 0.1016%

Gurobi 10.0.0 (win64) logging started Tue Jun  4 15:47:31 2024

Set parameter LogFile to value "C:\Users\ealvarezq\Documents\GitHub\Comillas\Models\JointResearch\05. Models\06.Benchmarking\D.Representative_days_based_on_RES_and_Demand\9n_mod1_ByStages_nc10/openStarNet_9n_mod1_ByStages_nc10.log"
Set parameter Method to value 2
Set parameter MIPFocus to value 1
Set parameter Presolve to value 2
Set parameter RINS to value 100
Set parameter MIPGap to value 0.01
Set parameter Threads to value 9
Set parameter TimeLimit to value 259200
Set parameter IterationLimit to value 760000000
Gurobi Optimizer version 10.0.0 build v10.0.0rc2 (win64)

CPU model: Intel(R) Core(TM) i7-8700 CPU @ 3.20GHz, instruction set [SSE2|AVX|AVX2]
Thread count: 6 physical cores, 12 logical processors, using up to 9 threads

Optimize a model with 2623 rows, 1393 columns and 6482 nonzeros
Model fingerprint: 0x70a5be1c
Coefficient statistics:
  Matrix range     [3e-04, 4e+03]
  Objective range  [1e+00, 1e+00]
  Bounds range     [7e-04, 2e+00]
  RHS range        [3e-04, 2e+01]
Presolve removed 2389 rows and 923 columns
Presolve time: 0.00s
Presolved: 234 rows, 480 columns, 1038 nonzeros

Ordering time: 0.00s

Barrier statistics:
 AA' NZ     : 5.200e+02
 Factor NZ  : 2.312e+03
 Factor Ops : 3.006e+04 (less than 1 second per iteration)
 Threads    : 1

                  Objective                Residual
Iter       Primal          Dual         Primal    Dual     Compl     Time
   0   3.98296704e+05 -8.86270129e+06  4.81e+00 6.29e+02  3.32e+04     0s
   1   7.76785774e+04 -3.72015271e+06  8.58e-01 3.64e-11  6.27e+03     0s
   2   1.87913612e+04 -9.28727278e+05  5.38e-02 3.09e-11  9.57e+02     0s
   3   8.21381644e+03 -2.78747938e+04  3.03e-15 1.77e-11  3.30e+01     0s
   4   1.39860905e+03 -4.84205168e+03  8.22e-15 2.36e-11  5.70e+00     0s
   5   7.38677343e+02 -1.09856392e+03  8.66e-15 5.40e-12  1.68e+00     0s
   6   3.96967162e+02 -2.15533722e+02  2.55e-15 5.24e-12  5.60e-01     0s
   7   1.38351178e+02  2.19620396e+01  1.33e-15 7.22e-12  1.06e-01     0s
   8   8.30289349e+01  5.67169986e+01  8.49e-15 8.70e-12  2.41e-02     0s
   9   7.32355591e+01  7.12059034e+01  6.88e-15 8.60e-12  1.86e-03     0s
  10   7.25610750e+01  7.25167010e+01  1.02e-14 2.46e-12  4.06e-05     0s
  11   7.25366942e+01  7.25365477e+01  4.40e-13 4.99e-12  1.34e-07     0s
  12   7.25366232e+01  7.25366232e+01  4.47e-14 5.50e-12  4.01e-13     0s

Barrier solved model in 12 iterations and 0.01 seconds (0.00 work units)
Optimal objective 7.25366232e+01

Crossover log...

     116 DPushes remaining with DInf 0.0000000e+00                 0s
       0 DPushes remaining with DInf 0.0000000e+00                 0s

       8 PPushes remaining with PInf 0.0000000e+00                 0s
       0 PPushes remaining with PInf 0.0000000e+00                 0s

  Push phase complete: Pinf 0.0000000e+00, Dinf 1.2775891e-13      0s

Iteration    Objective       Primal Inf.    Dual Inf.      Time
      12    7.2536623e+01   0.000000e+00   0.000000e+00      0s

Solved in 12 iterations and 0.01 seconds (0.01 work units)
Optimal objective  7.253662321e+01

Gurobi 11.0.0 (linux64) logging started Tue Aug  6 19:11:52 2024

Set parameter LogFile to value "/lustre1/scratch/348/vsc34888/JointResearch/05.Models/06.Benchmarking/D.Representative_days_based_on_RES_and_Demand/9n_mod1_ByStages_nc10/openStarNet_9n_mod1_ByStages_nc10.log"
Set parameter Method to value 2
Set parameter MIPFocus to value 1
Set parameter Presolve to value 2
Set parameter RINS to value 100
Set parameter MIPGap to value 0.01
Set parameter Threads to value 36
Set parameter TimeLimit to value 259200
Set parameter IterationLimit to value 760000000
Gurobi Optimizer version 11.0.0 build v11.0.0rc2 (linux64 - "Rocky Linux 8.9 (Green Obsidian)")

CPU model: Intel(R) Xeon(R) Gold 6240 CPU @ 2.60GHz, instruction set [SSE2|AVX|AVX2|AVX512]
Thread count: 36 physical cores, 36 logical processors, using up to 36 threads

Optimize a model with 2623 rows, 1393 columns and 6482 nonzeros
Model fingerprint: 0x1a08c1e8
Coefficient statistics:
  Matrix range     [3e-04, 4e+03]
  Objective range  [1e+00, 1e+00]
  Bounds range     [7e-04, 2e+00]
  RHS range        [3e-04, 1e+00]
Presolve removed 2389 rows and 923 columns
Presolve time: 0.08s
Presolved: 234 rows, 480 columns, 1038 nonzeros

Ordering time: 0.00s

Barrier statistics:
 AA' NZ     : 5.200e+02
 Factor NZ  : 2.312e+03
 Factor Ops : 3.006e+04 (less than 1 second per iteration)
 Threads    : 1

                  Objective                Residual
Iter       Primal          Dual         Primal    Dual     Compl     Time
   0   3.98021259e+05 -8.82704741e+06  4.77e+00 5.82e+02  3.29e+04     0s
   1   7.83249415e+04 -3.65502417e+06  8.17e-01 3.43e-11  6.09e+03     0s
   2   2.17231522e+04 -8.87640372e+05  3.46e-02 3.05e-11  8.89e+02     0s
   3   1.21649961e+04 -2.03634917e+04  5.55e-15 7.18e-11  2.97e+01     0s
   4   5.25485312e+03  8.60006827e+02  3.66e-15 1.17e-11  4.02e+00     0s
   5   4.83935538e+03  3.70708791e+03  3.89e-15 7.28e-12  1.03e+00     0s
   6   4.48985449e+03  4.21001434e+03  2.11e-15 3.64e-12  2.56e-01     0s
   7   4.38769035e+03  4.33221812e+03  6.22e-15 3.64e-12  5.07e-02     0s
   8   4.36402530e+03  4.35480122e+03  5.55e-15 3.64e-12  8.43e-03     0s
   9   4.36183413e+03  4.36059537e+03  7.11e-15 3.64e-12  1.13e-03     0s
  10   4.36157398e+03  4.36155028e+03  1.58e-14 7.28e-12  2.17e-05     0s
  11   4.36156145e+03  4.36156123e+03  2.37e-13 7.28e-12  2.01e-07     0s
  12   4.36156135e+03  4.36156135e+03  2.51e-14 7.28e-12  2.37e-13     0s

Barrier solved model in 12 iterations and 0.13 seconds (0.00 work units)
Optimal objective 4.36156135e+03

Crossover log...

     114 DPushes remaining with DInf 0.0000000e+00                 0s
       0 DPushes remaining with DInf 0.0000000e+00                 0s

       8 PPushes remaining with PInf 0.0000000e+00                 0s
       0 PPushes remaining with PInf 0.0000000e+00                 0s

  Push phase complete: Pinf 0.0000000e+00, Dinf 2.8432812e-13      0s

Iteration    Objective       Primal Inf.    Dual Inf.      Time
      17    4.3615614e+03   0.000000e+00   0.000000e+00      0s

Solved in 17 iterations and 0.15 seconds (0.01 work units)
Optimal objective  4.361561350e+03

Gurobi 11.0.0 (linux64) logging started Tue Aug  6 19:11:52 2024

Set parameter LogFile to value "/lustre1/scratch/348/vsc34888/JointResearch/05.Models/06.Benchmarking/D.Representative_days_based_on_RES_and_Demand/9n_mod1_ByStages_nc10/openStarNet_9n_mod1_ByStages_nc10.log"
Set parameter Method to value 2
Set parameter MIPFocus to value 1
Set parameter Presolve to value 2
Set parameter RINS to value 100
Set parameter MIPGap to value 0.01
Set parameter Threads to value 36
Set parameter TimeLimit to value 259200
Set parameter IterationLimit to value 760000000
Gurobi Optimizer version 11.0.0 build v11.0.0rc2 (linux64 - "Rocky Linux 8.9 (Green Obsidian)")

CPU model: Intel(R) Xeon(R) Gold 6240 CPU @ 2.60GHz, instruction set [SSE2|AVX|AVX2|AVX512]
Thread count: 36 physical cores, 36 logical processors, using up to 36 threads

Optimize a model with 2623 rows, 1393 columns and 6482 nonzeros
Model fingerprint: 0x1a08c1e8
Coefficient statistics:
  Matrix range     [3e-04, 4e+03]
  Objective range  [1e+00, 1e+00]
  Bounds range     [7e-04, 2e+00]
  RHS range        [3e-04, 1e+00]
Presolve removed 2389 rows and 923 columns
Presolve time: 0.00s
Presolved: 234 rows, 480 columns, 1038 nonzeros

Ordering time: 0.00s

Barrier statistics:
 AA' NZ     : 5.200e+02
 Factor NZ  : 2.312e+03
 Factor Ops : 3.006e+04 (less than 1 second per iteration)
 Threads    : 1

                  Objective                Residual
Iter       Primal          Dual         Primal    Dual     Compl     Time
   0   3.98021259e+05 -8.82704741e+06  4.77e+00 5.82e+02  3.29e+04     0s
   1   7.83249415e+04 -3.65502417e+06  8.17e-01 3.43e-11  6.09e+03     0s
   2   2.17231522e+04 -8.87640372e+05  3.46e-02 3.05e-11  8.89e+02     0s
   3   1.21649961e+04 -2.03634917e+04  5.55e-15 7.18e-11  2.97e+01     0s
   4   5.25485312e+03  8.60006827e+02  3.66e-15 1.17e-11  4.02e+00     0s
   5   4.83935538e+03  3.70708791e+03  3.89e-15 7.28e-12  1.03e+00     0s
   6   4.48985449e+03  4.21001434e+03  2.11e-15 3.64e-12  2.56e-01     0s
   7   4.38769035e+03  4.33221812e+03  6.22e-15 3.64e-12  5.07e-02     0s
   8   4.36402530e+03  4.35480122e+03  5.55e-15 3.64e-12  8.43e-03     0s
   9   4.36183413e+03  4.36059537e+03  7.11e-15 3.64e-12  1.13e-03     0s
  10   4.36157398e+03  4.36155028e+03  1.58e-14 7.28e-12  2.17e-05     0s
  11   4.36156145e+03  4.36156123e+03  2.37e-13 7.28e-12  2.01e-07     0s
  12   4.36156135e+03  4.36156135e+03  2.51e-14 7.28e-12  2.37e-13     0s

Barrier solved model in 12 iterations and 0.01 seconds (0.00 work units)
Optimal objective 4.36156135e+03

Crossover log...

     114 DPushes remaining with DInf 0.0000000e+00                 0s
       0 DPushes remaining with DInf 0.0000000e+00                 0s

       8 PPushes remaining with PInf 0.0000000e+00                 0s
       0 PPushes remaining with PInf 0.0000000e+00                 0s

  Push phase complete: Pinf 0.0000000e+00, Dinf 2.8432812e-13      0s

Iteration    Objective       Primal Inf.    Dual Inf.      Time
      17    4.3615614e+03   0.000000e+00   0.000000e+00      0s

Solved in 17 iterations and 0.01 seconds (0.01 work units)
Optimal objective  4.361561350e+03
